************************************************************************
file with basedata            : mm23_.bas
initial value random generator: 533753759
************************************************************************
projects                      :  1
jobs (incl. supersource/sink ):  12
horizon                       :  84
RESOURCES
  - renewable                 :  2   R
  - nonrenewable              :  2   N
  - doubly constrained        :  0   D
************************************************************************
PROJECT INFORMATION:
pronr.  #jobs rel.date duedate tardcost  MPM-Time
    1     10      0       16        0       16
************************************************************************
PRECEDENCE RELATIONS:
jobnr.    #modes  #successors   successors
   0        1          3           1   2   3
   1        3          2           5   9
   2        3          2           9  10
   3        3          3           4   7   9
   4        3          2           5  10
   5        3          1           6
   6        3          1           8
   7        3          1           8
   8        3          1          11
   9        3          1          11
  10        3          1          11
  11        1          0        
************************************************************************
REQUESTS/DURATIONS:
jobnr. mode duration  R 1  R 2  R 3  R 4  E(W 1)  E(W 2)  E(W 3)
------------------------------------------------------------------------
  0      1     0       0    0    0    0     0       0       0
  1      1     1       6    0    9    7     6       9       7
  2      1     1       0    5    5    7     5       5       7
  3      1     4       0    8    6    9    32      24      36
  4      1     2       0    5    8    5    10      16      10
  5      1     6       0    3    6    7    18      36      42
  6      1     3       0    5    7    8    15      21      24
  7      1     7       0    3    1    7    21      14      49
  8      1     1       3    0    7    8     3       7       8
  9      1     7       2    0    9    8    14      63      56
 10      1     3       5    0    6    9    15      18      27
 11      1     0       0    0    0    0     0       0       0
************************************************************************
RESOURCEAVAILABILITIES:
  R 1  R 2  R 3
   26   56   69
************************************************************************
RESOURCE LIMITS:
jobnr.  l(R 1)  u(R 1)  l(R 2)  u(R 2)  l(R 3)  u(R 3)
------------------------------------------------------------------------
  0        0       0       0       0       0       0
  1        3       6       5       9       4       7
  2        3       5       3       5       4       7
  3        4       8       3       6       5       9
  4        3       5       4       8       3       5
  5        2       3       3       6       4       7
  6        3       5       4       7       4       8
  7        2       3       1       2       4       7
  8        2       3       4       7       4       8
  9        1       2       5       9       4       8
 10        3       5       3       6       5       9
 11        0       0       0       0       0       0
************************************************************************
SCENARIOS:
------------------------------------------------------------------------
RESOURCE k = 1
s = 1: (0, 5, 5, 32, 15, 13, 15, 27, 3, 20, 11, 0)
s = 2: (0, 5, 5, 56, 6, 19, 22, 30, 3, 17, 26, 0)
s = 3: (0, 4, 8, 43, 7, 12, 24, 30, 4, 9, 13, 0)
s = 4: (0, 7, 5, 23, 7, 10, 14, 17, 4, 13, 24, 0)
s = 5: (0, 4, 8, 47, 12, 19, 16, 15, 3, 13, 14, 0)
s = 6: (0, 8, 9, 32, 8, 21, 13, 18, 3, 9, 10, 0)
s = 7: (0, 9, 5, 23, 6, 20, 13, 24, 3, 21, 12, 0)
s = 8: (0, 8, 4, 20, 9, 14, 16, 23, 3, 13, 11, 0)
s = 9: (0, 7, 5, 37, 9, 21, 13, 14, 4, 8, 16, 0)
s = 10: (0, 6, 4, 36, 10, 15, 16, 16, 5, 16, 11, 0)
s = 11: (0, 7, 5, 37, 9, 15, 16, 16, 3, 17, 17, 0)
s = 12: (0, 9, 6, 36, 8, 19, 12, 17, 2, 20, 27, 0)
s = 13: (0, 8, 6, 37, 8, 29, 13, 17, 2, 12, 20, 0)
s = 14: (0, 8, 6, 18, 8, 16, 11, 25, 3, 23, 11, 0)
s = 15: (0, 6, 5, 40, 14, 13, 14, 20, 3, 17, 10, 0)
s = 16: (0, 7, 8, 30, 13, 26, 13, 13, 3, 11, 16, 0)
s = 17: (0, 9, 4, 27, 6, 22, 14, 28, 4, 14, 18, 0)
s = 18: (0, 4, 7, 24, 8, 19, 16, 26, 3, 18, 19, 0)
s = 19: (0, 4, 5, 25, 13, 10, 23, 15, 3, 10, 21, 0)
s = 20: (0, 7, 4, 31, 9, 13, 19, 18, 2, 21, 12, 0)
s = 21: (0, 7, 5, 26, 10, 14, 10, 35, 3, 9, 19, 0)
s = 22: (0, 8, 6, 23, 13, 24, 9, 20, 5, 17, 10, 0)
s = 23: (0, 9, 5, 38, 13, 18, 11, 23, 4, 12, 18, 0)
s = 24: (0, 8, 5, 45, 11, 16, 14, 23, 2, 20, 18, 0)
s = 25: (0, 4, 6, 33, 7, 21, 13, 27, 3, 10, 14, 0)
s = 26: (0, 7, 5, 32, 11, 25, 15, 29, 3, 19, 13, 0)
s = 27: (0, 6, 6, 31, 10, 19, 16, 25, 4, 12, 10, 0)
s = 28: (0, 11, 4, 23, 8, 14, 20, 21, 4, 17, 19, 0)
s = 29: (0, 5, 9, 28, 12, 18, 9, 21, 4, 14, 10, 0)
s = 30: (0, 6, 7, 56, 8, 12, 13, 14, 3, 10, 14, 0)
s = 31: (0, 10, 4, 24, 17, 24, 12, 36, 4, 13, 14, 0)
s = 32: (0, 7, 5, 24, 16, 13, 16, 18, 4, 15, 9, 0)
s = 33: (0, 4, 7, 18, 12, 24, 19, 15, 5, 14, 14, 0)
s = 34: (0, 8, 7, 48, 6, 22, 15, 21, 4, 14, 9, 0)
s = 35: (0, 9, 6, 18, 8, 18, 17, 24, 3, 13, 14, 0)
s = 36: (0, 7, 5, 27, 18, 19, 12, 18, 3, 13, 21, 0)
s = 37: (0, 9, 8, 21, 8, 20, 21, 33, 4, 12, 17, 0)
s = 38: (0, 5, 7, 18, 13, 15, 23, 18, 4, 16, 25, 0)
s = 39: (0, 4, 4, 45, 8, 15, 9, 16, 3, 10, 15, 0)
s = 40: (0, 6, 4, 23, 11, 21, 30, 16, 3, 15, 17, 0)
s = 41: (0, 9, 5, 32, 9, 18, 14, 16, 4, 17, 15, 0)
s = 42: (0, 5, 7, 34, 16, 22, 13, 26, 3, 24, 19, 0)
s = 43: (0, 6, 9, 38, 8, 13, 12, 29, 4, 11, 19, 0)
s = 44: (0, 6, 6, 47, 12, 12, 14, 19, 5, 16, 10, 0)
s = 45: (0, 11, 6, 31, 8, 18, 22, 24, 4, 10, 13, 0)
s = 46: (0, 6, 8, 32, 7, 17, 11, 13, 5, 23, 15, 0)
s = 47: (0, 10, 8, 40, 11, 20, 16, 23, 3, 12, 12, 0)
s = 48: (0, 8, 4, 45, 9, 15, 25, 23, 3, 11, 9, 0)
s = 49: (0, 5, 7, 35, 9, 23, 11, 24, 4, 21, 22, 0)
s = 50: (0, 5, 5, 39, 12, 19, 13, 17, 3, 15, 10, 0)
s = 51: (0, 6, 5, 23, 8, 25, 9, 18, 4, 9, 10, 0)
s = 52: (0, 6, 4, 25, 11, 13, 14, 19, 5, 18, 12, 0)
s = 53: (0, 6, 6, 37, 8, 25, 12, 25, 3, 14, 17, 0)
s = 54: (0, 11, 7, 31, 8, 19, 13, 26, 4, 14, 12, 0)
s = 55: (0, 6, 4, 45, 9, 23, 12, 14, 4, 11, 15, 0)
s = 56: (0, 7, 6, 23, 9, 20, 11, 19, 3, 12, 21, 0)
s = 57: (0, 8, 5, 54, 7, 26, 12, 13, 4, 15, 21, 0)
s = 58: (0, 5, 5, 37, 13, 24, 21, 26, 4, 9, 22, 0)
s = 59: (0, 4, 5, 26, 12, 27, 12, 24, 3, 11, 13, 0)
s = 60: (0, 7, 6, 34, 16, 12, 13, 17, 3, 11, 15, 0)
s = 61: (0, 5, 7, 26, 7, 23, 17, 19, 2, 17, 19, 0)
s = 62: (0, 5, 4, 35, 7, 17, 9, 13, 3, 14, 12, 0)
s = 63: (0, 8, 6, 25, 13, 24, 21, 14, 4, 10, 16, 0)
s = 64: (0, 7, 7, 20, 9, 20, 16, 12, 3, 14, 21, 0)
s = 65: (0, 5, 3, 43, 12, 18, 13, 32, 3, 21, 17, 0)
s = 66: (0, 7, 5, 50, 13, 26, 15, 31, 4, 16, 20, 0)
s = 67: (0, 6, 6, 28, 12, 14, 15, 17, 3, 11, 18, 0)
s = 68: (0, 5, 6, 27, 12, 13, 9, 20, 3, 13, 10, 0)
s = 69: (0, 7, 8, 26, 9, 17, 18, 31, 5, 11, 11, 0)
s = 70: (0, 10, 4, 30, 16, 19, 24, 24, 3, 17, 12, 0)
s = 71: (0, 7, 6, 20, 8, 21, 11, 14, 4, 19, 15, 0)
s = 72: (0, 10, 6, 49, 11, 17, 11, 20, 3, 9, 17, 0)
s = 73: (0, 5, 8, 32, 11, 18, 12, 16, 3, 10, 22, 0)
s = 74: (0, 7, 8, 25, 18, 13, 19, 22, 2, 19, 16, 0)
s = 75: (0, 8, 7, 30, 6, 14, 19, 18, 4, 13, 14, 0)
s = 76: (0, 5, 5, 32, 9, 17, 21, 25, 3, 10, 22, 0)
s = 77: (0, 8, 3, 21, 11, 19, 17, 20, 2, 13, 18, 0)
s = 78: (0, 4, 4, 24, 11, 24, 10, 28, 4, 14, 20, 0)
s = 79: (0, 4, 5, 38, 11, 15, 12, 18, 4, 18, 18, 0)
s = 80: (0, 6, 9, 29, 9, 14, 12, 13, 3, 11, 13, 0)
s = 81: (0, 6, 8, 39, 7, 17, 16, 13, 2, 15, 18, 0)
s = 82: (0, 6, 4, 35, 12, 24, 17, 28, 3, 21, 18, 0)
s = 83: (0, 7, 5, 33, 9, 18, 11, 16, 3, 10, 22, 0)
s = 84: (0, 8, 4, 42, 7, 14, 11, 19, 3, 16, 18, 0)
s = 85: (0, 9, 6, 34, 8, 15, 20, 25, 2, 15, 24, 0)
s = 86: (0, 7, 4, 37, 11, 23, 15, 19, 4, 19, 21, 0)
s = 87: (0, 6, 5, 32, 7, 16, 16, 16, 4, 12, 16, 0)
s = 88: (0, 8, 5, 41, 8, 30, 16, 22, 5, 10, 9, 0)
s = 89: (0, 4, 5, 28, 9, 27, 18, 15, 3, 15, 23, 0)
s = 90: (0, 8, 5, 54, 10, 12, 19, 23, 2, 18, 15, 0)
s = 91: (0, 9, 8, 33, 14, 15, 21, 20, 3, 13, 16, 0)
s = 92: (0, 6, 5, 19, 16, 14, 18, 16, 3, 17, 9, 0)
s = 93: (0, 5, 5, 21, 9, 19, 18, 19, 4, 26, 19, 0)
s = 94: (0, 6, 5, 52, 10, 12, 10, 19, 2, 15, 14, 0)
s = 95: (0, 5, 6, 50, 11, 16, 20, 27, 3, 10, 20, 0)
s = 96: (0, 4, 6, 23, 15, 15, 12, 16, 4, 10, 17, 0)
s = 97: (0, 7, 7, 19, 10, 16, 14, 22, 3, 17, 18, 0)
s = 98: (0, 5, 5, 32, 9, 14, 15, 28, 3, 9, 13, 0)
s = 99: (0, 4, 5, 22, 8, 10, 14, 15, 3, 9, 12, 0)
s = 100: (0, 8, 4, 36, 14, 12, 20, 19, 5, 18, 9, 0)
s = 101: (0, 7, 3, 22, 9, 24, 12, 15, 5, 15, 20, 0)
s = 102: (0, 5, 8, 21, 10, 19, 23, 28, 2, 11, 9, 0)
s = 103: (0, 5, 7, 27, 10, 12, 20, 32, 3, 15, 17, 0)
s = 104: (0, 6, 7, 62, 7, 17, 12, 22, 2, 18, 19, 0)
s = 105: (0, 6, 5, 49, 12, 21, 14, 26, 3, 10, 10, 0)
s = 106: (0, 5, 6, 30, 9, 10, 19, 24, 2, 12, 17, 0)
s = 107: (0, 6, 5, 51, 9, 19, 12, 17, 4, 23, 18, 0)
s = 108: (0, 5, 4, 30, 12, 16, 11, 14, 3, 19, 20, 0)
s = 109: (0, 7, 4, 34, 10, 28, 13, 19, 3, 18, 16, 0)
s = 110: (0, 7, 4, 29, 12, 17, 20, 16, 4, 23, 22, 0)
s = 111: (0, 6, 4, 27, 6, 15, 11, 18, 4, 11, 15, 0)
s = 112: (0, 9, 4, 34, 15, 10, 13, 17, 4, 11, 17, 0)
s = 113: (0, 7, 4, 27, 8, 17, 14, 27, 2, 12, 16, 0)
s = 114: (0, 9, 4, 25, 7, 21, 27, 14, 4, 17, 14, 0)
s = 115: (0, 6, 5, 34, 12, 14, 22, 34, 4, 23, 16, 0)
s = 116: (0, 10, 6, 33, 15, 21, 13, 26, 2, 13, 21, 0)
s = 117: (0, 5, 3, 51, 7, 35, 14, 23, 2, 16, 13, 0)
s = 118: (0, 7, 6, 22, 13, 13, 13, 30, 3, 10, 29, 0)
s = 119: (0, 9, 3, 23, 9, 21, 12, 27, 3, 14, 13, 0)
s = 120: (0, 6, 6, 48, 7, 22, 13, 30, 3, 17, 22, 0)
s = 121: (0, 6, 6, 33, 12, 23, 13, 18, 3, 20, 19, 0)
s = 122: (0, 4, 5, 22, 11, 21, 20, 18, 3, 13, 13, 0)
s = 123: (0, 6, 5, 46, 6, 11, 17, 16, 2, 11, 10, 0)
s = 124: (0, 7, 6, 39, 8, 12, 14, 19, 4, 8, 12, 0)
s = 125: (0, 4, 5, 49, 8, 12, 15, 23, 2, 17, 20, 0)
s = 126: (0, 9, 5, 32, 12, 11, 18, 25, 4, 19, 22, 0)
s = 127: (0, 5, 5, 37, 9, 29, 11, 34, 2, 9, 18, 0)
s = 128: (0, 6, 5, 32, 11, 12, 13, 17, 3, 14, 13, 0)
s = 129: (0, 4, 6, 24, 9, 13, 15, 30, 3, 11, 9, 0)
s = 130: (0, 4, 5, 29, 15, 21, 12, 25, 4, 10, 13, 0)
s = 131: (0, 9, 5, 34, 9, 19, 13, 25, 4, 13, 11, 0)
s = 132: (0, 5, 5, 51, 9, 18, 12, 32, 3, 27, 17, 0)
s = 133: (0, 6, 4, 22, 10, 15, 19, 21, 5, 10, 13, 0)
s = 134: (0, 5, 4, 37, 15, 23, 22, 23, 2, 13, 15, 0)
s = 135: (0, 6, 4, 28, 8, 22, 11, 18, 4, 19, 16, 0)
s = 136: (0, 8, 6, 34, 14, 20, 12, 14, 2, 12, 17, 0)
s = 137: (0, 7, 4, 28, 13, 23, 19, 27, 4, 15, 20, 0)
s = 138: (0, 7, 4, 24, 12, 26, 12, 26, 3, 13, 14, 0)
s = 139: (0, 6, 7, 34, 8, 14, 16, 16, 3, 18, 20, 0)
s = 140: (0, 5, 4, 25, 7, 26, 13, 19, 3, 20, 11, 0)
s = 141: (0, 5, 3, 23, 7, 25, 17, 35, 3, 20, 14, 0)
s = 142: (0, 6, 5, 41, 11, 24, 22, 23, 3, 19, 13, 0)
s = 143: (0, 5, 8, 37, 9, 18, 19, 19, 5, 12, 25, 0)
s = 144: (0, 10, 6, 35, 9, 13, 11, 18, 4, 12, 14, 0)
s = 145: (0, 5, 4, 20, 12, 23, 12, 18, 4, 17, 16, 0)
s = 146: (0, 7, 5, 23, 10, 19, 15, 25, 5, 18, 15, 0)
s = 147: (0, 7, 6, 26, 7, 13, 28, 19, 4, 10, 16, 0)
s = 148: (0, 5, 4, 45, 14, 27, 13, 24, 3, 16, 14, 0)
s = 149: (0, 5, 4, 22, 15, 11, 18, 24, 3, 15, 13, 0)
s = 150: (0, 8, 4, 26, 7, 16, 12, 27, 3, 12, 13, 0)
s = 151: (0, 7, 5, 25, 14, 12, 15, 18, 3, 18, 9, 0)
s = 152: (0, 5, 5, 39, 10, 28, 9, 16, 2, 17, 11, 0)
s = 153: (0, 5, 8, 28, 8, 18, 9, 22, 3, 16, 15, 0)
s = 154: (0, 5, 7, 35, 10, 11, 20, 42, 3, 13, 25, 0)
s = 155: (0, 7, 4, 44, 11, 26, 20, 15, 5, 21, 19, 0)
s = 156: (0, 7, 4, 28, 10, 11, 18, 29, 4, 16, 15, 0)
s = 157: (0, 7, 5, 29, 18, 14, 15, 13, 4, 10, 11, 0)
s = 158: (0, 7, 7, 43, 14, 14, 17, 24, 4, 17, 19, 0)
s = 159: (0, 10, 7, 36, 8, 14, 13, 25, 3, 17, 12, 0)
s = 160: (0, 5, 8, 40, 13, 18, 12, 14, 3, 13, 13, 0)
s = 161: (0, 8, 5, 53, 7, 21, 11, 15, 4, 12, 24, 0)
s = 162: (0, 7, 8, 31, 10, 16, 12, 30, 3, 19, 14, 0)
s = 163: (0, 5, 9, 33, 9, 22, 13, 25, 6, 10, 16, 0)
s = 164: (0, 7, 7, 38, 8, 21, 14, 15, 3, 11, 17, 0)
s = 165: (0, 7, 6, 30, 8, 12, 16, 18, 4, 14, 27, 0)
s = 166: (0, 9, 5, 38, 8, 25, 20, 21, 3, 13, 10, 0)
s = 167: (0, 4, 7, 38, 9, 25, 15, 27, 4, 15, 14, 0)
s = 168: (0, 8, 3, 35, 7, 22, 10, 16, 2, 13, 14, 0)
s = 169: (0, 5, 4, 33, 10, 15, 13, 23, 4, 16, 18, 0)
s = 170: (0, 10, 7, 34, 11, 31, 11, 23, 4, 12, 20, 0)
s = 171: (0, 5, 6, 22, 7, 16, 19, 13, 3, 17, 11, 0)
s = 172: (0, 6, 5, 41, 9, 15, 17, 14, 3, 9, 10, 0)
s = 173: (0, 8, 5, 32, 11, 21, 16, 34, 3, 20, 17, 0)
s = 174: (0, 6, 5, 28, 11, 26, 11, 11, 3, 15, 12, 0)
s = 175: (0, 7, 5, 49, 7, 20, 12, 29, 3, 17, 13, 0)
s = 176: (0, 8, 7, 40, 12, 15, 23, 29, 4, 14, 20, 0)
s = 177: (0, 5, 6, 41, 13, 26, 14, 14, 4, 10, 16, 0)
s = 178: (0, 6, 6, 44, 18, 24, 13, 15, 3, 17, 21, 0)
s = 179: (0, 9, 4, 25, 15, 15, 19, 16, 3, 19, 10, 0)
s = 180: (0, 5, 5, 28, 11, 13, 15, 19, 4, 15, 11, 0)
s = 181: (0, 7, 6, 41, 9, 29, 20, 17, 3, 12, 19, 0)
s = 182: (0, 8, 5, 27, 10, 28, 12, 12, 2, 14, 12, 0)
s = 183: (0, 7, 3, 26, 11, 16, 10, 25, 3, 9, 12, 0)
s = 184: (0, 5, 4, 21, 10, 23, 22, 33, 3, 12, 12, 0)
s = 185: (0, 8, 4, 46, 9, 17, 15, 36, 3, 12, 13, 0)
s = 186: (0, 7, 5, 25, 13, 15, 10, 13, 3, 12, 20, 0)
s = 187: (0, 6, 8, 41, 9, 22, 11, 26, 3, 14, 22, 0)
s = 188: (0, 8, 5, 38, 9, 11, 17, 29, 3, 16, 13, 0)
s = 189: (0, 5, 8, 26, 7, 23, 23, 23, 4, 15, 12, 0)
s = 190: (0, 10, 7, 44, 9, 19, 14, 15, 2, 11, 22, 0)
s = 191: (0, 5, 4, 31, 15, 25, 12, 17, 3, 20, 13, 0)
s = 192: (0, 12, 4, 29, 9, 12, 21, 17, 3, 12, 21, 0)
s = 193: (0, 9, 5, 45, 8, 27, 9, 21, 4, 15, 22, 0)
s = 194: (0, 5, 4, 22, 12, 11, 13, 12, 3, 14, 12, 0)
s = 195: (0, 11, 5, 25, 11, 14, 13, 18, 3, 12, 12, 0)
s = 196: (0, 8, 7, 26, 14, 21, 13, 12, 5, 16, 16, 0)
s = 197: (0, 6, 4, 41, 10, 20, 13, 21, 3, 24, 10, 0)
s = 198: (0, 7, 10, 28, 16, 17, 9, 17, 2, 11, 13, 0)
s = 199: (0, 6, 5, 31, 13, 18, 12, 15, 3, 12, 14, 0)
s = 200: (0, 9, 7, 30, 9, 13, 21, 15, 3, 20, 15, 0)
------------------------------------------------------------------------
RESOURCE k = 2
s = 1: (0, 8, 5, 24, 23, 25, 21, 18, 7, 87, 14, 0)
s = 2: (0, 7, 5, 42, 10, 38, 31, 20, 6, 74, 31, 0)
s = 3: (0, 6, 8, 33, 11, 23, 33, 20, 9, 39, 15, 0)
s = 4: (0, 10, 5, 17, 10, 20, 19, 12, 8, 57, 29, 0)
s = 5: (0, 6, 8, 36, 19, 38, 22, 10, 6, 55, 17, 0)
s = 6: (0, 12, 9, 24, 12, 42, 18, 12, 7, 40, 12, 0)
s = 7: (0, 14, 5, 18, 9, 40, 18, 16, 5, 91, 14, 0)
s = 8: (0, 12, 4, 15, 13, 27, 22, 16, 7, 57, 13, 0)
s = 9: (0, 10, 5, 28, 15, 42, 18, 9, 9, 35, 19, 0)
s = 10: (0, 9, 4, 27, 16, 29, 22, 11, 11, 70, 13, 0)
s = 11: (0, 11, 5, 28, 14, 30, 22, 11, 7, 73, 21, 0)
s = 12: (0, 13, 6, 27, 12, 38, 17, 12, 5, 86, 33, 0)
s = 13: (0, 12, 6, 28, 12, 57, 18, 12, 5, 54, 24, 0)
s = 14: (0, 12, 6, 14, 13, 32, 15, 17, 7, 101, 14, 0)
s = 15: (0, 9, 5, 30, 23, 25, 19, 13, 6, 76, 12, 0)
s = 16: (0, 11, 8, 22, 20, 52, 18, 9, 6, 46, 20, 0)
s = 17: (0, 13, 4, 21, 9, 44, 19, 19, 9, 62, 21, 0)
s = 18: (0, 6, 7, 18, 13, 38, 22, 17, 7, 79, 23, 0)
s = 19: (0, 6, 5, 19, 21, 20, 32, 10, 5, 41, 25, 0)
s = 20: (0, 10, 4, 23, 15, 25, 27, 12, 5, 91, 14, 0)
s = 21: (0, 10, 5, 20, 15, 27, 14, 23, 6, 40, 22, 0)
s = 22: (0, 11, 6, 18, 20, 47, 13, 14, 11, 76, 12, 0)
s = 23: (0, 14, 5, 29, 20, 35, 16, 15, 9, 54, 21, 0)
s = 24: (0, 12, 5, 34, 18, 32, 19, 16, 5, 86, 22, 0)
s = 25: (0, 6, 6, 25, 11, 42, 17, 18, 7, 42, 16, 0)
s = 26: (0, 10, 5, 24, 17, 50, 20, 20, 7, 82, 15, 0)
s = 27: (0, 9, 6, 24, 16, 38, 22, 17, 9, 54, 12, 0)
s = 28: (0, 16, 4, 18, 12, 28, 27, 14, 8, 73, 22, 0)
s = 29: (0, 8, 9, 21, 19, 36, 12, 14, 8, 62, 11, 0)
s = 30: (0, 8, 7, 42, 13, 23, 18, 10, 7, 42, 16, 0)
s = 31: (0, 14, 4, 18, 27, 48, 17, 24, 8, 57, 17, 0)
s = 32: (0, 11, 5, 18, 25, 26, 22, 12, 9, 64, 11, 0)
s = 33: (0, 6, 7, 14, 18, 47, 26, 10, 10, 61, 16, 0)
s = 34: (0, 11, 7, 36, 10, 44, 21, 14, 9, 60, 10, 0)
s = 35: (0, 13, 6, 14, 12, 36, 23, 16, 7, 55, 17, 0)
s = 36: (0, 10, 5, 21, 28, 37, 17, 12, 7, 57, 25, 0)
s = 37: (0, 14, 8, 16, 12, 40, 29, 22, 8, 54, 20, 0)
s = 38: (0, 7, 7, 13, 21, 29, 33, 12, 9, 69, 29, 0)
s = 39: (0, 6, 4, 34, 13, 29, 13, 11, 7, 45, 18, 0)
s = 40: (0, 8, 4, 17, 17, 42, 41, 11, 7, 68, 20, 0)
s = 41: (0, 14, 5, 24, 15, 36, 19, 11, 10, 77, 18, 0)
s = 42: (0, 7, 7, 26, 25, 44, 18, 18, 7, 104, 23, 0)
s = 43: (0, 9, 9, 29, 12, 25, 17, 20, 8, 50, 23, 0)
s = 44: (0, 9, 6, 36, 20, 24, 19, 13, 11, 69, 12, 0)
s = 45: (0, 16, 6, 23, 13, 35, 31, 16, 8, 45, 16, 0)
s = 46: (0, 8, 8, 24, 11, 33, 16, 9, 11, 100, 18, 0)
s = 47: (0, 14, 8, 30, 17, 39, 22, 15, 7, 51, 14, 0)
s = 48: (0, 12, 4, 34, 15, 30, 35, 16, 6, 46, 11, 0)
s = 49: (0, 8, 7, 27, 13, 46, 15, 16, 9, 93, 27, 0)
s = 50: (0, 7, 5, 29, 18, 38, 17, 12, 6, 64, 12, 0)
s = 51: (0, 9, 5, 17, 13, 49, 13, 12, 9, 40, 12, 0)
s = 52: (0, 9, 4, 19, 17, 26, 19, 13, 11, 81, 14, 0)
s = 53: (0, 9, 6, 28, 12, 50, 17, 17, 6, 61, 20, 0)
s = 54: (0, 16, 7, 23, 12, 37, 18, 17, 9, 63, 14, 0)
s = 55: (0, 8, 4, 34, 15, 46, 16, 10, 8, 47, 18, 0)
s = 56: (0, 11, 6, 18, 14, 39, 15, 13, 7, 52, 25, 0)
s = 57: (0, 11, 5, 41, 12, 52, 16, 9, 9, 68, 26, 0)
s = 58: (0, 7, 5, 28, 20, 47, 29, 18, 9, 39, 27, 0)
s = 59: (0, 6, 5, 20, 19, 53, 16, 16, 6, 48, 16, 0)
s = 60: (0, 11, 6, 26, 26, 23, 18, 12, 6, 49, 17, 0)
s = 61: (0, 8, 7, 20, 11, 45, 23, 13, 5, 77, 23, 0)
s = 62: (0, 8, 4, 26, 11, 34, 13, 9, 7, 62, 14, 0)
s = 63: (0, 12, 6, 19, 21, 47, 29, 10, 8, 44, 19, 0)
s = 64: (0, 10, 7, 15, 14, 40, 22, 8, 5, 60, 25, 0)
s = 65: (0, 7, 3, 32, 20, 36, 18, 21, 6, 93, 20, 0)
s = 66: (0, 10, 5, 38, 20, 52, 21, 21, 9, 70, 24, 0)
s = 67: (0, 9, 6, 21, 19, 28, 21, 12, 6, 47, 22, 0)
s = 68: (0, 7, 6, 21, 18, 25, 13, 13, 7, 55, 12, 0)
s = 69: (0, 10, 8, 19, 14, 33, 25, 21, 12, 48, 13, 0)
s = 70: (0, 15, 4, 23, 25, 37, 33, 16, 7, 77, 14, 0)
s = 71: (0, 10, 6, 15, 12, 42, 15, 10, 8, 84, 18, 0)
s = 72: (0, 15, 6, 37, 18, 34, 15, 13, 7, 38, 21, 0)
s = 73: (0, 7, 8, 24, 17, 35, 16, 11, 7, 42, 26, 0)
s = 74: (0, 10, 8, 19, 29, 26, 27, 15, 5, 82, 19, 0)
s = 75: (0, 11, 7, 23, 9, 28, 26, 12, 8, 57, 17, 0)
s = 76: (0, 7, 5, 24, 14, 34, 29, 17, 6, 44, 26, 0)
s = 77: (0, 11, 3, 16, 17, 37, 23, 14, 5, 59, 22, 0)
s = 78: (0, 6, 4, 18, 18, 48, 14, 19, 8, 63, 24, 0)
s = 79: (0, 6, 5, 29, 18, 29, 16, 12, 8, 78, 22, 0)
s = 80: (0, 9, 9, 22, 14, 28, 17, 9, 6, 47, 16, 0)
s = 81: (0, 8, 8, 29, 11, 33, 22, 9, 5, 66, 22, 0)
s = 82: (0, 9, 4, 27, 19, 47, 23, 19, 7, 93, 22, 0)
s = 83: (0, 10, 5, 25, 15, 35, 15, 11, 7, 44, 27, 0)
s = 84: (0, 12, 4, 32, 11, 27, 15, 13, 6, 71, 22, 0)
s = 85: (0, 13, 6, 26, 12, 30, 28, 17, 4, 67, 29, 0)
s = 86: (0, 11, 4, 28, 18, 46, 20, 13, 8, 85, 25, 0)
s = 87: (0, 8, 5, 24, 11, 32, 22, 11, 9, 52, 20, 0)
s = 88: (0, 12, 5, 31, 13, 60, 22, 15, 10, 44, 11, 0)
s = 89: (0, 6, 5, 21, 15, 53, 26, 10, 7, 65, 28, 0)
s = 90: (0, 11, 5, 41, 15, 23, 26, 16, 4, 81, 17, 0)
s = 91: (0, 13, 8, 25, 22, 30, 29, 14, 6, 57, 19, 0)
s = 92: (0, 8, 5, 14, 25, 27, 25, 11, 7, 77, 11, 0)
s = 93: (0, 7, 5, 16, 15, 37, 25, 13, 8, 114, 22, 0)
s = 94: (0, 9, 5, 39, 16, 23, 14, 13, 5, 64, 17, 0)
s = 95: (0, 7, 6, 37, 18, 32, 28, 18, 6, 44, 24, 0)
s = 96: (0, 6, 6, 18, 24, 29, 17, 11, 9, 44, 21, 0)
s = 97: (0, 10, 7, 14, 16, 32, 20, 15, 6, 73, 21, 0)
s = 98: (0, 7, 5, 24, 15, 27, 20, 19, 5, 38, 15, 0)
s = 99: (0, 5, 5, 17, 12, 20, 19, 10, 6, 40, 15, 0)
s = 100: (0, 12, 4, 27, 22, 23, 27, 13, 10, 79, 11, 0)
s = 101: (0, 10, 3, 16, 14, 47, 16, 10, 11, 66, 24, 0)
s = 102: (0, 8, 8, 16, 16, 38, 32, 19, 5, 47, 11, 0)
s = 103: (0, 7, 7, 20, 16, 23, 28, 21, 5, 66, 20, 0)
s = 104: (0, 9, 7, 46, 11, 33, 16, 15, 5, 79, 23, 0)
s = 105: (0, 8, 5, 37, 19, 41, 19, 18, 5, 44, 12, 0)
s = 106: (0, 8, 6, 23, 15, 20, 26, 16, 5, 54, 20, 0)
s = 107: (0, 8, 5, 38, 15, 37, 16, 11, 8, 101, 21, 0)
s = 108: (0, 7, 4, 23, 20, 31, 15, 10, 7, 82, 24, 0)
s = 109: (0, 10, 4, 26, 16, 55, 18, 13, 6, 79, 20, 0)
s = 110: (0, 10, 4, 22, 19, 33, 27, 11, 9, 102, 26, 0)
s = 111: (0, 9, 4, 20, 10, 30, 15, 12, 9, 49, 18, 0)
s = 112: (0, 13, 4, 26, 23, 20, 17, 12, 9, 50, 20, 0)
s = 113: (0, 11, 4, 20, 13, 33, 20, 18, 5, 53, 19, 0)
s = 114: (0, 13, 4, 19, 12, 41, 38, 9, 10, 74, 17, 0)
s = 115: (0, 8, 5, 25, 19, 27, 30, 23, 9, 102, 19, 0)
s = 116: (0, 15, 6, 25, 24, 42, 19, 18, 5, 57, 26, 0)
s = 117: (0, 7, 3, 39, 11, 70, 20, 16, 5, 72, 15, 0)
s = 118: (0, 10, 6, 17, 20, 25, 19, 20, 7, 43, 34, 0)
s = 119: (0, 13, 3, 17, 14, 42, 17, 18, 6, 60, 15, 0)
s = 120: (0, 9, 6, 36, 12, 43, 18, 20, 6, 75, 27, 0)
s = 121: (0, 9, 6, 25, 19, 46, 19, 12, 7, 87, 23, 0)
s = 122: (0, 6, 5, 17, 17, 42, 27, 12, 6, 56, 15, 0)
s = 123: (0, 9, 5, 35, 10, 21, 23, 11, 5, 47, 12, 0)
s = 124: (0, 11, 6, 29, 12, 23, 19, 13, 8, 35, 14, 0)
s = 125: (0, 6, 5, 37, 13, 23, 21, 16, 5, 76, 23, 0)
s = 126: (0, 14, 5, 24, 19, 22, 24, 17, 8, 84, 26, 0)
s = 127: (0, 8, 5, 28, 14, 58, 15, 23, 5, 41, 21, 0)
s = 128: (0, 9, 5, 24, 17, 24, 18, 12, 6, 60, 16, 0)
s = 129: (0, 6, 6, 18, 14, 26, 21, 20, 6, 46, 10, 0)
s = 130: (0, 6, 5, 22, 23, 42, 17, 17, 8, 44, 15, 0)
s = 131: (0, 14, 5, 25, 14, 38, 18, 17, 8, 58, 14, 0)
s = 132: (0, 7, 5, 38, 14, 36, 16, 22, 5, 122, 20, 0)
s = 133: (0, 9, 4, 16, 16, 29, 26, 14, 11, 45, 16, 0)
s = 134: (0, 7, 4, 28, 24, 45, 31, 15, 5, 57, 17, 0)
s = 135: (0, 9, 4, 21, 13, 43, 15, 12, 9, 82, 19, 0)
s = 136: (0, 12, 6, 25, 22, 40, 16, 9, 5, 54, 21, 0)
s = 137: (0, 10, 4, 21, 20, 45, 27, 18, 9, 64, 24, 0)
s = 138: (0, 10, 4, 18, 19, 52, 17, 18, 7, 55, 16, 0)
s = 139: (0, 8, 7, 26, 13, 27, 23, 11, 7, 81, 24, 0)
s = 140: (0, 8, 4, 19, 10, 51, 18, 13, 7, 89, 13, 0)
s = 141: (0, 7, 3, 17, 11, 50, 23, 24, 6, 89, 16, 0)
s = 142: (0, 9, 5, 31, 17, 47, 30, 16, 7, 85, 15, 0)
s = 143: (0, 7, 8, 28, 14, 36, 26, 13, 11, 53, 30, 0)
s = 144: (0, 15, 6, 26, 15, 26, 16, 12, 9, 52, 16, 0)
s = 145: (0, 8, 4, 15, 18, 45, 16, 12, 8, 74, 19, 0)
s = 146: (0, 10, 5, 17, 15, 38, 21, 17, 12, 79, 18, 0)
s = 147: (0, 11, 6, 20, 11, 26, 38, 13, 9, 42, 19, 0)
s = 148: (0, 8, 4, 34, 22, 54, 18, 16, 6, 72, 17, 0)
s = 149: (0, 8, 4, 17, 23, 22, 25, 16, 6, 65, 16, 0)
s = 150: (0, 11, 4, 19, 12, 32, 16, 18, 7, 52, 15, 0)
s = 151: (0, 10, 5, 19, 22, 23, 21, 12, 7, 81, 11, 0)
s = 152: (0, 7, 5, 29, 16, 56, 13, 11, 5, 76, 13, 0)
s = 153: (0, 8, 8, 21, 12, 35, 12, 15, 6, 70, 17, 0)
s = 154: (0, 7, 7, 26, 15, 21, 27, 28, 7, 55, 30, 0)
s = 155: (0, 10, 4, 33, 17, 51, 28, 10, 10, 95, 23, 0)
s = 156: (0, 10, 4, 21, 15, 21, 24, 20, 9, 70, 17, 0)
s = 157: (0, 10, 5, 22, 28, 27, 21, 9, 9, 43, 13, 0)
s = 158: (0, 10, 7, 32, 21, 27, 23, 16, 9, 76, 22, 0)
s = 159: (0, 15, 7, 27, 12, 28, 18, 17, 6, 73, 15, 0)
s = 160: (0, 7, 8, 30, 21, 36, 17, 9, 6, 55, 15, 0)
s = 161: (0, 11, 5, 40, 11, 41, 15, 10, 8, 53, 29, 0)
s = 162: (0, 10, 8, 23, 16, 31, 17, 20, 6, 84, 16, 0)
s = 163: (0, 8, 9, 25, 14, 43, 17, 17, 12, 42, 19, 0)
s = 164: (0, 10, 7, 28, 13, 42, 19, 10, 7, 49, 20, 0)
s = 165: (0, 10, 6, 23, 13, 23, 22, 12, 9, 62, 33, 0)
s = 166: (0, 14, 5, 28, 12, 49, 28, 14, 7, 57, 11, 0)
s = 167: (0, 6, 7, 28, 14, 49, 21, 18, 8, 66, 17, 0)
s = 168: (0, 12, 3, 27, 11, 43, 14, 11, 5, 55, 17, 0)
s = 169: (0, 7, 4, 25, 16, 30, 18, 16, 9, 72, 21, 0)
s = 170: (0, 14, 7, 26, 18, 61, 15, 15, 8, 53, 24, 0)
s = 171: (0, 7, 6, 17, 11, 32, 26, 9, 6, 77, 13, 0)
s = 172: (0, 8, 5, 31, 15, 30, 23, 9, 6, 38, 12, 0)
s = 173: (0, 12, 5, 24, 17, 42, 22, 23, 7, 88, 21, 0)
s = 174: (0, 9, 5, 21, 18, 52, 15, 8, 7, 67, 15, 0)
s = 175: (0, 10, 5, 37, 11, 39, 17, 19, 7, 73, 16, 0)
s = 176: (0, 11, 7, 30, 19, 29, 32, 19, 9, 62, 24, 0)
s = 177: (0, 7, 6, 31, 21, 51, 19, 9, 9, 44, 19, 0)
s = 178: (0, 9, 6, 33, 28, 48, 18, 10, 7, 76, 25, 0)
s = 179: (0, 14, 4, 19, 24, 30, 26, 11, 7, 86, 11, 0)
s = 180: (0, 8, 5, 21, 17, 26, 21, 13, 8, 66, 13, 0)
s = 181: (0, 10, 6, 31, 15, 58, 27, 11, 7, 52, 22, 0)
s = 182: (0, 12, 5, 20, 16, 55, 16, 8, 4, 62, 14, 0)
s = 183: (0, 11, 3, 20, 17, 32, 13, 17, 6, 38, 15, 0)
s = 184: (0, 7, 4, 16, 15, 46, 30, 22, 7, 50, 15, 0)
s = 185: (0, 12, 4, 34, 15, 34, 21, 24, 6, 50, 15, 0)
s = 186: (0, 10, 5, 19, 21, 30, 13, 9, 7, 53, 24, 0)
s = 187: (0, 9, 8, 31, 14, 44, 15, 17, 6, 59, 26, 0)
s = 188: (0, 12, 5, 29, 14, 21, 23, 20, 6, 70, 16, 0)
s = 189: (0, 8, 8, 20, 11, 46, 32, 16, 8, 64, 14, 0)
s = 190: (0, 14, 7, 33, 14, 38, 19, 10, 5, 47, 26, 0)
s = 191: (0, 7, 4, 24, 23, 50, 17, 11, 7, 86, 15, 0)
s = 192: (0, 18, 4, 22, 14, 23, 29, 12, 7, 51, 25, 0)
s = 193: (0, 13, 5, 34, 13, 54, 12, 14, 9, 66, 26, 0)
s = 194: (0, 7, 4, 17, 19, 22, 18, 8, 5, 63, 14, 0)
s = 195: (0, 17, 5, 19, 17, 28, 18, 12, 5, 52, 14, 0)
s = 196: (0, 12, 7, 19, 22, 42, 18, 8, 10, 69, 19, 0)
s = 197: (0, 9, 4, 31, 16, 40, 18, 14, 6, 108, 12, 0)
s = 198: (0, 11, 10, 21, 26, 33, 13, 11, 5, 48, 16, 0)
s = 199: (0, 9, 5, 24, 21, 36, 16, 10, 7, 52, 17, 0)
s = 200: (0, 13, 7, 23, 13, 26, 30, 10, 6, 87, 18, 0)
------------------------------------------------------------------------
RESOURCE k = 3
s = 1: (0, 6, 7, 36, 15, 29, 24, 61, 7, 77, 20, 0)
s = 2: (0, 6, 6, 63, 6, 44, 35, 69, 6, 66, 46, 0)
s = 3: (0, 5, 10, 49, 7, 26, 37, 69, 10, 35, 23, 0)
s = 4: (0, 8, 7, 25, 7, 23, 22, 40, 9, 51, 43, 0)
s = 5: (0, 5, 11, 53, 12, 45, 25, 33, 7, 49, 25, 0)
s = 6: (0, 9, 12, 36, 8, 49, 21, 41, 7, 36, 18, 0)
s = 7: (0, 11, 6, 26, 6, 46, 20, 54, 6, 81, 21, 0)
s = 8: (0, 9, 5, 22, 9, 32, 25, 54, 8, 51, 20, 0)
s = 9: (0, 8, 6, 42, 9, 49, 21, 31, 10, 31, 29, 0)
s = 10: (0, 7, 6, 40, 10, 34, 25, 37, 13, 62, 20, 0)
s = 11: (0, 9, 6, 42, 9, 35, 25, 38, 8, 65, 31, 0)
s = 12: (0, 10, 8, 40, 8, 44, 20, 40, 5, 77, 49, 0)
s = 13: (0, 10, 8, 41, 8, 66, 20, 39, 5, 48, 35, 0)
s = 14: (0, 9, 8, 21, 8, 38, 18, 57, 8, 89, 20, 0)
s = 15: (0, 7, 7, 44, 14, 29, 21, 45, 7, 68, 17, 0)
s = 16: (0, 8, 11, 33, 13, 61, 20, 31, 6, 41, 29, 0)
s = 17: (0, 10, 6, 31, 6, 51, 22, 65, 10, 55, 32, 0)
s = 18: (0, 5, 10, 27, 8, 44, 25, 60, 8, 70, 34, 0)
s = 19: (0, 5, 6, 28, 13, 23, 36, 35, 6, 37, 37, 0)
s = 20: (0, 8, 6, 35, 9, 30, 31, 41, 6, 81, 21, 0)
s = 21: (0, 8, 7, 30, 10, 32, 15, 80, 6, 36, 33, 0)
s = 22: (0, 9, 9, 26, 13, 55, 15, 46, 13, 67, 17, 0)
s = 23: (0, 11, 7, 43, 13, 40, 18, 53, 11, 48, 31, 0)
s = 24: (0, 9, 7, 50, 11, 37, 22, 54, 5, 77, 33, 0)
s = 25: (0, 5, 8, 37, 7, 49, 20, 61, 8, 37, 24, 0)
s = 26: (0, 8, 6, 36, 11, 58, 23, 68, 8, 73, 22, 0)
s = 27: (0, 7, 8, 35, 10, 45, 25, 57, 10, 48, 18, 0)
s = 28: (0, 13, 5, 26, 8, 33, 31, 48, 9, 65, 33, 0)
s = 29: (0, 6, 13, 31, 12, 42, 14, 49, 9, 55, 17, 0)
s = 30: (0, 7, 10, 63, 8, 27, 21, 33, 7, 37, 24, 0)
s = 31: (0, 11, 6, 27, 17, 56, 19, 83, 9, 51, 25, 0)
s = 32: (0, 8, 7, 27, 16, 30, 25, 41, 11, 57, 16, 0)
s = 33: (0, 5, 9, 20, 12, 55, 29, 35, 12, 54, 24, 0)
s = 34: (0, 9, 10, 54, 6, 52, 24, 49, 10, 53, 15, 0)
s = 35: (0, 10, 9, 20, 8, 42, 27, 55, 8, 49, 26, 0)
s = 36: (0, 8, 7, 31, 18, 43, 19, 41, 8, 51, 37, 0)
s = 37: (0, 11, 10, 24, 8, 46, 33, 77, 9, 48, 29, 0)
s = 38: (0, 5, 9, 20, 13, 34, 37, 40, 11, 61, 44, 0)
s = 39: (0, 5, 5, 51, 8, 34, 15, 38, 8, 40, 26, 0)
s = 40: (0, 6, 5, 25, 11, 49, 47, 37, 7, 60, 30, 0)
s = 41: (0, 11, 7, 36, 9, 42, 21, 37, 11, 68, 27, 0)
s = 42: (0, 6, 9, 38, 16, 51, 20, 61, 8, 93, 34, 0)
s = 43: (0, 7, 12, 43, 8, 29, 19, 67, 9, 44, 34, 0)
s = 44: (0, 7, 8, 53, 12, 28, 22, 45, 13, 62, 17, 0)
s = 45: (0, 13, 9, 35, 8, 40, 35, 55, 9, 40, 24, 0)
s = 46: (0, 7, 11, 36, 7, 38, 18, 29, 13, 89, 27, 0)
s = 47: (0, 11, 10, 45, 11, 46, 25, 53, 8, 45, 20, 0)
s = 48: (0, 9, 5, 50, 9, 35, 40, 54, 6, 41, 17, 0)
s = 49: (0, 6, 9, 40, 9, 53, 17, 55, 10, 83, 40, 0)
s = 50: (0, 6, 6, 43, 12, 44, 20, 39, 6, 57, 18, 0)
s = 51: (0, 7, 7, 26, 8, 57, 15, 42, 11, 36, 18, 0)
s = 52: (0, 7, 5, 28, 11, 31, 21, 44, 12, 72, 21, 0)
s = 53: (0, 7, 8, 42, 8, 58, 20, 57, 7, 54, 30, 0)
s = 54: (0, 12, 10, 35, 8, 43, 21, 59, 10, 56, 21, 0)
s = 55: (0, 7, 5, 51, 9, 53, 19, 33, 9, 42, 26, 0)
s = 56: (0, 8, 8, 26, 9, 45, 17, 43, 8, 47, 37, 0)
s = 57: (0, 9, 7, 61, 7, 60, 19, 31, 10, 60, 38, 0)
s = 58: (0, 5, 6, 42, 13, 55, 33, 60, 10, 34, 40, 0)
s = 59: (0, 5, 6, 29, 12, 62, 19, 54, 7, 43, 24, 0)
s = 60: (0, 9, 8, 38, 16, 27, 20, 40, 7, 44, 26, 0)
s = 61: (0, 6, 9, 29, 7, 53, 26, 43, 5, 68, 34, 0)
s = 62: (0, 6, 5, 39, 7, 40, 14, 29, 8, 55, 21, 0)
s = 63: (0, 9, 8, 28, 13, 55, 33, 33, 9, 40, 28, 0)
s = 64: (0, 8, 10, 22, 9, 47, 25, 27, 6, 54, 37, 0)
s = 65: (0, 6, 4, 48, 12, 42, 20, 74, 7, 82, 30, 0)
s = 66: (0, 8, 6, 57, 13, 61, 24, 71, 10, 63, 36, 0)
s = 67: (0, 7, 8, 32, 12, 32, 23, 40, 6, 42, 32, 0)
s = 68: (0, 5, 9, 31, 12, 29, 15, 46, 8, 49, 18, 0)
s = 69: (0, 8, 11, 29, 9, 38, 29, 71, 14, 42, 19, 0)
s = 70: (0, 12, 6, 34, 16, 43, 37, 56, 8, 68, 21, 0)
s = 71: (0, 8, 8, 23, 8, 49, 17, 33, 9, 75, 27, 0)
s = 72: (0, 12, 9, 55, 11, 40, 17, 46, 8, 34, 31, 0)
s = 73: (0, 6, 10, 36, 11, 41, 19, 37, 8, 38, 39, 0)
s = 74: (0, 8, 11, 28, 18, 31, 31, 50, 5, 73, 28, 0)
s = 75: (0, 9, 10, 34, 6, 33, 29, 42, 9, 51, 25, 0)
s = 76: (0, 6, 7, 36, 9, 39, 33, 58, 7, 39, 38, 0)
s = 77: (0, 9, 5, 24, 11, 43, 26, 47, 6, 52, 32, 0)
s = 78: (0, 5, 5, 27, 11, 55, 16, 65, 9, 56, 36, 0)
s = 79: (0, 5, 6, 43, 11, 34, 18, 41, 9, 69, 32, 0)
s = 80: (0, 7, 13, 33, 9, 32, 19, 30, 6, 42, 23, 0)
s = 81: (0, 7, 11, 43, 7, 38, 25, 29, 5, 59, 32, 0)
s = 82: (0, 7, 6, 40, 12, 54, 26, 65, 8, 82, 32, 0)
s = 83: (0, 8, 7, 37, 9, 41, 17, 38, 7, 39, 40, 0)
s = 84: (0, 10, 6, 48, 7, 31, 17, 45, 7, 63, 32, 0)
s = 85: (0, 10, 8, 39, 8, 35, 32, 57, 5, 60, 43, 0)
s = 86: (0, 8, 6, 41, 11, 54, 23, 44, 9, 75, 37, 0)
s = 87: (0, 6, 7, 36, 7, 37, 25, 36, 10, 47, 29, 0)
s = 88: (0, 10, 7, 46, 8, 70, 25, 50, 11, 39, 17, 0)
s = 89: (0, 5, 6, 32, 9, 62, 29, 34, 8, 58, 42, 0)
s = 90: (0, 9, 7, 61, 10, 27, 30, 53, 5, 72, 26, 0)
s = 91: (0, 10, 11, 37, 14, 35, 33, 46, 7, 51, 29, 0)
s = 92: (0, 6, 7, 21, 16, 31, 29, 37, 8, 68, 16, 0)
s = 93: (0, 6, 6, 23, 9, 43, 28, 44, 10, 101, 33, 0)
s = 94: (0, 7, 7, 59, 10, 27, 16, 43, 5, 57, 25, 0)
s = 95: (0, 6, 8, 56, 11, 38, 32, 61, 7, 39, 36, 0)
s = 96: (0, 5, 9, 26, 15, 34, 20, 37, 11, 39, 31, 0)
s = 97: (0, 8, 10, 21, 10, 37, 23, 51, 7, 65, 32, 0)
s = 98: (0, 5, 7, 36, 9, 31, 23, 65, 6, 34, 23, 0)
s = 99: (0, 4, 7, 25, 8, 24, 22, 35, 7, 36, 22, 0)
s = 100: (0, 10, 6, 40, 14, 27, 31, 43, 11, 70, 16, 0)
s = 101: (0, 8, 4, 24, 9, 55, 18, 34, 13, 58, 36, 0)
s = 102: (0, 6, 11, 23, 10, 44, 36, 64, 5, 42, 17, 0)
s = 103: (0, 5, 9, 30, 10, 27, 32, 73, 6, 58, 30, 0)
s = 104: (0, 7, 10, 69, 7, 38, 19, 50, 5, 70, 34, 0)
s = 105: (0, 7, 7, 55, 12, 48, 22, 61, 6, 39, 18, 0)
s = 106: (0, 6, 9, 34, 9, 23, 30, 55, 6, 48, 29, 0)
s = 107: (0, 6, 7, 57, 9, 44, 18, 38, 9, 90, 32, 0)
s = 108: (0, 6, 6, 34, 12, 36, 17, 32, 7, 73, 36, 0)
s = 109: (0, 8, 5, 39, 10, 64, 21, 43, 6, 71, 29, 0)
s = 110: (0, 8, 5, 33, 12, 38, 31, 36, 11, 91, 39, 0)
s = 111: (0, 7, 5, 30, 6, 34, 18, 42, 10, 44, 27, 0)
s = 112: (0, 10, 5, 38, 15, 24, 20, 40, 10, 44, 30, 0)
s = 113: (0, 8, 5, 30, 8, 38, 23, 62, 5, 48, 28, 0)
s = 114: (0, 10, 5, 29, 7, 48, 43, 31, 11, 66, 25, 0)
s = 115: (0, 6, 7, 38, 12, 32, 35, 78, 10, 90, 28, 0)
s = 116: (0, 12, 8, 37, 15, 49, 21, 61, 5, 51, 38, 0)
s = 117: (0, 6, 4, 58, 7, 82, 22, 53, 5, 64, 23, 0)
s = 118: (0, 8, 9, 25, 13, 29, 21, 68, 8, 38, 51, 0)
s = 119: (0, 10, 5, 25, 9, 49, 19, 61, 7, 54, 22, 0)
s = 120: (0, 7, 8, 54, 7, 50, 21, 69, 7, 66, 40, 0)
s = 121: (0, 7, 8, 38, 12, 54, 21, 42, 8, 78, 34, 0)
s = 122: (0, 5, 7, 25, 11, 48, 31, 42, 7, 50, 23, 0)
s = 123: (0, 7, 7, 52, 6, 24, 27, 36, 6, 42, 18, 0)
s = 124: (0, 8, 9, 44, 8, 27, 22, 43, 9, 31, 21, 0)
s = 125: (0, 4, 7, 55, 8, 27, 24, 54, 6, 67, 35, 0)
s = 126: (0, 11, 6, 36, 12, 25, 28, 58, 9, 75, 39, 0)
s = 127: (0, 6, 7, 42, 9, 68, 17, 78, 6, 36, 32, 0)
s = 128: (0, 7, 7, 36, 11, 28, 20, 40, 6, 53, 24, 0)
s = 129: (0, 5, 8, 27, 9, 30, 24, 70, 7, 41, 15, 0)
s = 130: (0, 4, 7, 32, 15, 49, 19, 58, 9, 39, 22, 0)
s = 131: (0, 11, 7, 38, 9, 45, 20, 57, 9, 51, 20, 0)
s = 132: (0, 5, 6, 57, 9, 42, 19, 74, 6, 108, 30, 0)
s = 133: (0, 7, 6, 24, 10, 34, 30, 48, 13, 40, 23, 0)
s = 134: (0, 5, 5, 42, 15, 52, 36, 52, 5, 51, 26, 0)
s = 135: (0, 7, 6, 31, 8, 51, 17, 40, 10, 73, 29, 0)
s = 136: (0, 9, 8, 38, 14, 46, 18, 32, 5, 48, 31, 0)
s = 137: (0, 8, 6, 31, 13, 52, 30, 63, 11, 57, 36, 0)
s = 138: (0, 8, 6, 27, 12, 60, 19, 60, 8, 49, 24, 0)
s = 139: (0, 7, 9, 39, 8, 32, 26, 36, 8, 72, 35, 0)
s = 140: (0, 6, 5, 28, 7, 59, 20, 45, 8, 79, 19, 0)
s = 141: (0, 6, 5, 26, 7, 58, 26, 82, 7, 79, 24, 0)
s = 142: (0, 7, 7, 46, 11, 55, 34, 53, 8, 76, 22, 0)
s = 143: (0, 6, 12, 41, 9, 42, 30, 43, 12, 48, 44, 0)
s = 144: (0, 12, 8, 39, 9, 30, 18, 41, 11, 46, 24, 0)
s = 145: (0, 6, 6, 22, 12, 52, 18, 42, 9, 66, 28, 0)
s = 146: (0, 8, 7, 26, 10, 44, 24, 57, 13, 70, 27, 0)
s = 147: (0, 8, 8, 29, 7, 30, 44, 44, 10, 38, 28, 0)
s = 148: (0, 6, 6, 51, 14, 63, 20, 56, 7, 64, 25, 0)
s = 149: (0, 6, 6, 25, 15, 26, 28, 56, 7, 58, 24, 0)
s = 150: (0, 9, 6, 29, 7, 38, 19, 62, 8, 46, 22, 0)
s = 151: (0, 8, 7, 28, 14, 27, 24, 41, 8, 72, 16, 0)
s = 152: (0, 6, 7, 43, 10, 65, 14, 36, 6, 68, 20, 0)
s = 153: (0, 6, 11, 31, 8, 41, 14, 51, 7, 62, 26, 0)
s = 154: (0, 6, 9, 39, 10, 25, 31, 97, 8, 49, 44, 0)
s = 155: (0, 8, 5, 49, 11, 60, 32, 34, 12, 84, 35, 0)
s = 156: (0, 8, 6, 31, 10, 25, 28, 67, 10, 63, 26, 0)
s = 157: (0, 8, 7, 32, 18, 31, 24, 29, 11, 38, 19, 0)
s = 158: (0, 8, 9, 48, 14, 31, 27, 55, 10, 68, 33, 0)
s = 159: (0, 11, 10, 40, 8, 32, 20, 59, 7, 65, 22, 0)
s = 160: (0, 6, 11, 45, 13, 42, 19, 31, 7, 49, 23, 0)
s = 161: (0, 9, 7, 60, 7, 47, 18, 34, 9, 47, 43, 0)
s = 162: (0, 8, 10, 35, 10, 36, 19, 68, 7, 75, 24, 0)
s = 163: (0, 6, 12, 37, 9, 50, 20, 57, 14, 37, 28, 0)
s = 164: (0, 8, 10, 42, 8, 49, 22, 34, 7, 44, 30, 0)
s = 165: (0, 8, 8, 34, 8, 27, 25, 42, 10, 55, 49, 0)
s = 166: (0, 11, 7, 42, 8, 58, 32, 49, 8, 50, 17, 0)
s = 167: (0, 5, 10, 42, 9, 57, 24, 63, 9, 59, 25, 0)
s = 168: (0, 9, 5, 40, 7, 51, 16, 36, 6, 49, 25, 0)
s = 169: (0, 5, 5, 37, 10, 35, 21, 53, 10, 64, 31, 0)
s = 170: (0, 11, 10, 38, 11, 72, 17, 52, 9, 47, 36, 0)
s = 171: (0, 5, 8, 25, 7, 38, 29, 30, 6, 68, 19, 0)
s = 172: (0, 7, 7, 46, 9, 34, 27, 31, 6, 34, 18, 0)
s = 173: (0, 9, 7, 36, 11, 49, 25, 79, 8, 78, 31, 0)
s = 174: (0, 7, 7, 32, 11, 60, 17, 25, 8, 60, 22, 0)
s = 175: (0, 8, 7, 55, 7, 45, 19, 67, 8, 65, 23, 0)
s = 176: (0, 9, 10, 45, 12, 34, 36, 66, 10, 55, 36, 0)
s = 177: (0, 5, 8, 46, 13, 60, 22, 32, 10, 39, 29, 0)
s = 178: (0, 7, 8, 50, 18, 56, 21, 35, 8, 68, 37, 0)
s = 179: (0, 11, 5, 28, 15, 35, 30, 36, 8, 76, 17, 0)
s = 180: (0, 6, 7, 31, 11, 30, 24, 43, 9, 59, 20, 0)
s = 181: (0, 8, 9, 46, 9, 67, 31, 38, 8, 46, 33, 0)
s = 182: (0, 9, 7, 30, 10, 64, 19, 28, 5, 55, 21, 0)
s = 183: (0, 9, 5, 29, 11, 38, 15, 58, 7, 34, 22, 0)
s = 184: (0, 6, 5, 24, 10, 53, 34, 77, 7, 45, 22, 0)
s = 185: (0, 9, 6, 51, 9, 40, 24, 83, 7, 45, 23, 0)
s = 186: (0, 8, 7, 28, 13, 35, 15, 29, 8, 47, 35, 0)
s = 187: (0, 7, 11, 46, 9, 52, 18, 60, 7, 53, 39, 0)
s = 188: (0, 10, 7, 43, 9, 24, 26, 67, 7, 62, 24, 0)
s = 189: (0, 6, 11, 29, 7, 54, 36, 54, 9, 57, 21, 0)
s = 190: (0, 11, 9, 50, 9, 45, 21, 34, 6, 42, 39, 0)
s = 191: (0, 5, 5, 35, 15, 59, 19, 38, 7, 77, 22, 0)
s = 192: (0, 14, 6, 32, 9, 27, 34, 40, 8, 45, 37, 0)
s = 193: (0, 10, 7, 51, 8, 63, 14, 47, 10, 59, 39, 0)
s = 194: (0, 6, 5, 25, 12, 26, 21, 27, 6, 56, 21, 0)
s = 195: (0, 13, 6, 28, 11, 33, 20, 42, 6, 46, 20, 0)
s = 196: (0, 10, 9, 29, 14, 49, 21, 28, 12, 62, 28, 0)
s = 197: (0, 7, 5, 46, 10, 47, 20, 49, 7, 96, 17, 0)
s = 198: (0, 8, 14, 32, 16, 39, 14, 38, 5, 43, 23, 0)
s = 199: (0, 7, 6, 35, 13, 42, 18, 35, 8, 46, 25, 0)
s = 200: (0, 11, 9, 34, 9, 31, 34, 35, 7, 77, 27, 0)
************************************************************************
ES/LS-VALUES:
jobnr.   ES(i)    LS(i)
------------------------------------------------------------------------
  0        0        0
  1        0       62
  2        0       68
  3        0       52
  4        7       60
  5       10       64
  6       21       76
  7        7       68
  8       27       82
  9        7       70
 10       10       78
 11       29       84
************************************************************************
BIG-M-VALUES:
M1 = 79, M2 = 281
************************************************************************
